c User generated cnf file
p cnf 12 33
-9 2 1 0 
1 -5 8 0 
11 -3 4 0 
10 6 -2 0 
-2 4 1 0 
-4 10 11 0 
7 -12 6 0 
-12 3 10 0 
9 6 -1 0 
7 9 -2 0 
1 -1 1 0 
4 9 -7 0 
-1 9 9 0 
10 2 -12 0 
3 3 -4 0 
1 -5 1 0 
-1 1 6 0 
9 -8 12 0 
5 -1 11 0 
9 11 -4 0 
6 8 -7 0 
-12 1 12 0 
11 1 -10 0 
-11 1 1 0 
6 -1 9 0 
2 7 -11 0 
1 4 -8 0 
5 -10 11 0 
6 8 -6 0 
12 10 -3 0 
2 7 -3 0 
11 5 -8 0 
7 -4 3 0 
